 $CONTRL EXETYP=RUN COORD=UNIQUE MOLPLT=.TRUE. $END
 $CONTRL SCFTYP=RHF RUNTYP=ENERGY DFTTYP=M05-2X ICHARG= MULT= $END
 $BASIS  NGAUSS=6 GBASIS=N311 $END 
 $BASIS  NDFUNC=1 NPFUNC=1 DIFFSP=.FALSE. DIFFS=.FALSE. $END
 $DFT    DC=.TRUE. IDCVER=3 $END
 $PCM    SOLVNT=WATER SMD=.TRUE. $END
 $STATPT NSTEP=100 $END
 $SYSTEM MWORDS=50 MEMDDI=200 $END
 $ELPOT  IEPOT=1 WHERE=PDC OUTPUT=PUNCH $END
 $PDC    PTSEL=CONNOLLY $END
 $GUESS  GUESS=HUCKEL $END
