 $CONTRL COORD=UNIQUE $END
 $CONTRL SCFTYP=RHF RUNTYP=OPTIMIZE DFTTYP=M05-2X ICHARG= MULT= $END
 $STATPT NSTEP=200 $END
 $BASIS  NGAUSS=6 GBASIS=N311 $END 
 $BASIS  NDFUNC=1 NPFUNC=1 DIFFSP=.FALSE. DIFFS=.FALSE. $END
 $DFT    DC=.TRUE. IDCVER=3 $END
 $PCM    SOLVNT=WATER SMD=.TRUE. $END
 $SYSTEM MWORDS=50 MEMDDI=200 $END
 $GUESS  GUESS=HUCKEL $END
