 $CONTRL COORD=UNIQUE $END
 $CONTRL SCFTYP=RHF RUNTYP=OPTIMIZE DFTTYP=B3LYP ICHARG=0 MULT=1 $END
 $STATPT NSTEP=200 $END
 $BASIS  NGAUSS=6 GBASIS=N31 $END 
 $BASIS  NDFUNC=1 NPFUNC=0 DIFFSP=.FALSE. DIFFS=.FALSE. $END
 $DFT    DC=.TRUE. IDCVER=3 $END
 $PCM    SOLVNT=WATER SMD=.TRUE. $END
 $SYSTEM MWORDS=50 MEMDDI=200 $END
 $GUESS  GUESS=HUCKEL $END

 $DATA

C1
C      6.0      5.5910000000    0.6592000000    0.8215000000 
N      7.0      3.5452000000   -0.6174000000    1.1350000000 
C      6.0      4.7774000000   -0.2257000000    1.7458000000 
C      6.0      5.5376000000   -1.4789000000    2.1480000000 
C      6.0      4.7933000000   -2.3257000000    3.1223000000 
C      6.0      4.0113000000   -3.3984000000    2.7757000000 
N      7.0      3.4511000000   -3.9506000000    3.9178000000 
C      6.0      3.8942000000   -3.2394000000    5.0153000000 
C      6.0      3.6330000000   -3.4236000000    6.3691000000 
C      6.0      4.2119000000   -2.5505000000    7.2615000000 
C      6.0      5.0473000000   -1.5181000000    6.8204000000 
C      6.0      5.3116000000   -1.3408000000    5.4863000000 
C      6.0      4.7368000000   -2.2094000000    4.5487000000 
O      8.0      5.2168000000    0.8990000000   -0.3257000000 
F      9.0      5.6144000000   -0.6729000000    7.6765000000 
C      6.0      2.3588000000    0.0553000000    1.4512000000 
O      8.0      2.3536000000    0.9880000000    2.2376000000 
C      6.0      1.0994000000   -0.4010000000    0.7986000000 
N      7.0      6.7203000000    1.1488000000    1.3341000000 
C      6.0      7.5927000000    2.0862000000    0.6427000000 
H      1.0      3.5311000000   -1.3583000000    0.4937000000 
H      1.0      4.5640000000    0.3280000000    2.6362000000 
H      1.0      6.4665000000   -1.1862000000    2.5912000000 
H      1.0      5.7282000000   -2.0585000000    1.2690000000 
H      1.0      3.8618000000   -3.7441000000    1.8063000000 
H      1.0      2.8420000000   -4.7179000000    3.9419000000 
H      1.0      3.0194000000   -4.1968000000    6.6966000000 
H      1.0      4.0258000000   -2.6596000000    8.2789000000 
H      1.0      5.9333000000   -0.5682000000    5.1731000000 
H      1.0      0.4928000000   -0.9160000000    1.5139000000 
H      1.0      1.3358000000   -1.0614000000   -0.0095000000 
H      1.0      0.5654000000    0.4466000000    0.4227000000 
H      1.0      6.9793000000    0.8590000000    2.2337000000 
H      1.0      8.4293000000    1.5598000000    0.2328000000 
H      1.0      7.9405000000    2.8254000000    1.3336000000 
H      1.0      7.0498000000    2.5625000000   -0.1468000000 
 $END


