 $CONTRL EXETYP=RUN COORD=UNIQUE MOLPLT=.TRUE. $END
 $CONTRL SCFTYP=RHF RUNTYP=ENERGY DFTTYP=B3LYP ICHARG=0 MULT=1 $END
 $BASIS  NGAUSS=6 GBASIS=N31 $END 
 $BASIS  NDFUNC=1 NPFUNC=0 DIFFSP=.FALSE. DIFFS=.FALSE. $END
 $DFT    DC=.TRUE. IDCVER=3 $END
 $PCM    SOLVNT=WATER SMD=.TRUE. $END
 $STATPT NSTEP=100 $END
 $SYSTEM MWORDS=50 MEMDDI=200 $END
 $ELPOT  IEPOT=1 WHERE=PDC OUTPUT=PUNCH $END
 $PDC    PTSEL=CONNOLLY $END
 $GUESS  GUESS=HUCKEL $END

 $DATA
5F-TRP.3D.capped.geoopt.log
C1
C      6.0      5.8485000000    0.5510000000    0.7864000000 
N      7.0      3.6469000000   -0.3702000000    1.1473000000 
C      6.0      4.9381000000   -0.1680000000    1.7817000000 
C      6.0      5.5998000000   -1.5260000000    2.1631000000 
C      6.0      4.7625000000   -2.3494000000    3.0887000000 
C      6.0      3.8487000000   -3.3124000000    2.7282000000 
N      7.0      3.2035000000   -3.8032000000    3.8444000000 
C      6.0      3.7111000000   -3.1759000000    4.9657000000 
C      6.0      3.4020000000   -3.3459000000    6.3188000000 
C      6.0      4.0770000000   -2.5547000000    7.2439000000 
C      6.0      5.0356000000   -1.6312000000    6.7978000000 
C      6.0      5.3625000000   -1.4455000000    5.4676000000 
C      6.0      4.6892000000   -2.2401000000    4.5211000000 
O      8.0      5.8918000000    0.1831000000   -0.3970000000 
F      9.0      5.6712000000   -0.8783000000    7.7401000000 
C      6.0      2.4661000000   -0.2663000000    1.8103000000 
O      8.0      2.3869000000    0.1429000000    2.9751000000 
C      6.0      1.2298000000   -0.6348000000    1.0140000000 
N      7.0      6.6167000000    1.5459000000    1.2705000000 
C      6.0      7.5645000000    2.2527000000    0.4149000000 
H      1.0      3.6703000000   -0.7042000000    0.1923000000 
H      1.0      4.7628000000    0.4235000000    2.6827000000 
H      1.0      6.5804000000   -1.3170000000    2.6105000000 
H      1.0      5.7884000000   -2.0697000000    1.2302000000 
H      1.0      3.6045000000   -3.6911000000    1.7446000000 
H      1.0      2.5840000000   -4.6024000000    3.8515000000 
H      1.0      2.6579000000   -4.0681000000    6.6431000000 
H      1.0      3.8809000000   -2.6395000000    8.3081000000 
H      1.0      6.1136000000   -0.7141000000    5.1845000000 
H      1.0      0.5446000000   -1.1810000000    1.6682000000 
H      1.0      1.4459000000   -1.2437000000    0.1307000000 
H      1.0      0.7234000000    0.2825000000    0.6909000000 
H      1.0      6.5221000000    1.8358000000    2.2352000000 
H      1.0      8.3018000000    1.5595000000   -0.0022000000 
H      1.0      8.0828000000    3.0065000000    1.0101000000 
H      1.0      7.0472000000    2.7477000000   -0.4135000000 
 $END


